CPXPARAM_Read_DataCheck                          1
Found incumbent of value 0.000000 after 0.02 sec. (3.82 ticks)
Tried aggregator 1 time.
MIP Presolve eliminated 6 rows and 0 columns.
MIP Presolve modified 1 coefficients.
Reduced MIP has 10040 rows, 150015 columns, and 690045 nonzeros.
Reduced MIP has 150015 binaries, 0 generals, 0 SOSs, and 0 indicators.
Presolve time = 0.47 sec. (259.90 ticks)
Tried aggregator 1 time.
Reduced MIP has 10040 rows, 150015 columns, and 690045 nonzeros.
Reduced MIP has 150015 binaries, 0 generals, 0 SOSs, and 0 indicators.
Presolve time = 0.69 sec. (290.79 ticks)
Probing time = 0.16 sec. (31.10 ticks)
Clique table members: 150000.
MIP emphasis: balance optimality and feasibility.
MIP search method: dynamic search.
Parallel mode: deterministic, using up to 4 threads.
Root relaxation solution time = 2.22 sec. (1326.40 ticks)

        Nodes                                         Cuts/
   Node  Left     Objective  IInf  Best Integer    Best Bound    ItCnt     Gap

*     0+    0                            0.0000   924654.0000              --- 
      0     0   521636.9895    19        0.0000   521636.9895       16     --- 
*     0+    0                       286692.0000   521636.9895            81.95%
      0     0   384971.4905  2062   286692.0000    Cuts: 2610    29224    7.21%

Clique cuts applied:  4268
Cover cuts applied:  1
Mixed integer rounding cuts applied:  14

Root node processing (before b&c):
  Real time             =  276.28 sec. (107522.58 ticks)
Parallel b&c, 4 threads:
  Real time             =    0.00 sec. (0.00 ticks)
  Sync time (average)   =    0.00 sec.
  Wait time (average)   =    0.00 sec.
                          ------------
Total (root+branch&cut) =  276.28 sec. (107522.58 ticks)
